# Solution for model Objective
# Objective value = 9
M 2
W3 0
W4 0
W9 0
W12 0
W13 0
W14 0
W15 0
W19 0
W20 0
W22 0
W23 1
W24 1
W25 0
W26 1
W27 0
W28 0
W31 0
W34 1
W35 0
W36 0
W38 0
W39 0
W40 1
W41 0
W43 1
W44 0
W45 1
W46 0
W47 0
W0 0
W1 2
W2 2
W5 1
W6 2
W7 1
W8 2
W10 2
W11 0
W16 0
W17 2
W18 2
W21 0
W29 0
W30 1
W32 2
W33 2
W37 1
W42 0
d0_1 1
d0_2 0
d0_3 0
d0_4 0
d0_5 0
d0_6 0
d0_7 0
d0_8 0
d0_9 0
d0_0 0
d1_1 0
d1_2 0
d1_3 1
d1_4 0
d1_5 0
d1_6 0
d1_7 0
d1_8 0
d1_9 0
d1_0 0
d2_1 0
d2_2 1
d2_3 0
d2_4 0
d2_5 0
d2_6 0
d2_7 0
d2_8 0
d2_9 0
d2_0 0
d3_1 0
d3_2 0
d3_3 0
d3_4 1
d3_5 0
d3_6 0
d3_7 0
d3_8 0
d3_9 0
d3_0 0
d4_1 0
d4_2 0
d4_3 0
d4_4 1
d4_5 0
d4_6 0
d4_7 0
d4_8 0
d4_9 0
d4_0 0
